
numDies = 20; % numero de dies
m = 3; % num linacs
s = 8; % num sessions per pacient
p = 45; % num pacients
tolerancia = 3; % diferencia maxima diaSesio i separacio
solicitud = 14; % dies maxims fins primera visita

disponible = [|  3,  4,  3,  5,  3, 14, 19, 15, 10, 11, 34, 35, 30, 28, 38, 49, 49, 49, 49, 49
              |  5, 10,  7,  6,  3, 19, 20, 19, 21, 15, 35, 38, 34, 32, 38, 49, 49, 49, 49, 49
              |  5, 11, 12, 12, 19, 26, 23, 23, 24, 27, 40, 43, 34, 32, 38, 49, 49, 49, 49, 49 |]; % capacitat de cada linac

duracio = [| 2, 2, 2, 2, 2, 2, 2, 2
            | 2, 2, 2, 2, 2, 2, 2, 2
            | 2, 2, 2, 2, 2, 2, 2, 2
            | 2, 2, 2, 2, 2, 2, 2, 2
            | 2, 2, 2, 2, 2, 2, 2, 2
            | 2, 2, 2, 2, 2, 2, 2, 2
            | 2, 2, 2, 2, 2, 2, 2, 2
            | 2, 2, 2, 2, 2, 2, 2, 2
            | 2, 2, 2, 2, 2, 2, 2, 2
            | 2, 2, 2, 2, 2, 3, 3, 3
            | 2, 2, 2, 2, 2, 3, 3, 3
            | 2, 2, 2, 2, 2, 3, 3, 3
            | 2, 2, 2, 2, 2, 3, 3, 3
            | 2, 2, 2, 2, 2, 3, 3, 3
            | 2, 2, 2, 2, 2, 3, 3, 3
            | 2, 2, 2, 2, 2, 3, 3, 3
            | 2, 2, 2, 2, 2, 3, 3, 3
            | 2, 2, 2, 2, 2, 3, 3, 3
            | 2, 2, 2, 2, 2, 3, 3, 3
            | 2, 2, 2, 2, 2, 3, 3, 3
            | 2, 2, 2, 2, 2, 3, 3, 3
            | 2, 2, 2, 2, 2, 3, 3, 3
            | 2, 2, 2, 2, 2, 3, 3, 3
            | 3, 3, 3, 3, 3, 2, 2, 2
            | 3, 3, 3, 3, 3, 2, 2, 2
            | 3, 3, 3, 3, 3, 2, 2, 2
            | 3, 3, 3, 3, 3, 2, 2, 2
            | 3, 3, 3, 3, 3, 2, 2, 2
            | 3, 3, 3, 3, 3, 2, 2, 2
            | 3, 3, 3, 3, 3, 2, 2, 2
            | 3, 3, 3, 3, 3, 2, 2, 2
            | 3, 3, 3, 3, 3, 2, 2, 2
            | 3, 3, 3, 3, 3, 2, 2, 2
            | 3, 3, 3, 3, 3, 3, 3, 3
            | 3, 3, 3, 3, 3, 3, 3, 3
            | 3, 3, 3, 3, 3, 3, 3, 3
            | 3, 3, 3, 3, 3, 3, 3, 3
            | 3, 3, 3, 3, 3, 3, 3, 3
            | 3, 3, 3, 3, 3, 3, 3, 3
            | 3, 3, 3, 3, 3, 3, 3, 3
            | 3, 3, 3, 3, 3, 3, 3, 3
            | 3, 3, 3, 3, 3, 3, 3, 3
            | 3, 3, 3, 3, 3, 3, 3, 3
            | 3, 3, 3, 3, 3, 3, 3, 3
            | 3, 3, 3, 3, 3, 3, 3, 3 |]; % duracion de la sesion (2 o 3 instants de temps)(30 o 45 mins)

separacio = [| 3, 1, 3, 1, 3, 1, 3
              | 1, 2, 1, 2, 1, 2, 2
              | 1, 2, 1, 2, 1, 2, 2
              | 1, 2, 1, 2, 1, 2, 2
              | 1, 2, 1, 2, 1, 2, 2
              | 1, 2, 1, 2, 1, 2, 2
              | 1, 2, 1, 2, 1, 2, 2
              | 1, 2, 1, 2, 1, 2, 2
              | 1, 2, 1, 2, 1, 2, 2
              | 3, 1, 3, 1, 3, 1, 3
              | 3, 1, 3, 1, 3, 1, 3
              | 3, 1, 3, 1, 3, 1, 3
              | 3, 1, 3, 1, 3, 1, 3
              | 3, 1, 3, 1, 3, 1, 3
              | 3, 1, 3, 1, 3, 1, 3
              | 1, 2, 1, 2, 1, 2, 2
              | 1, 2, 1, 2, 1, 2, 2
              | 1, 2, 1, 2, 1, 2, 2
              | 1, 2, 1, 2, 1, 2, 2
              | 1, 2, 1, 2, 1, 2, 2
              | 1, 2, 1, 2, 1, 2, 2
              | 3, 1, 3, 1, 3, 1, 3
              | 3, 1, 3, 1, 3, 1, 3
              | 1, 2, 1, 2, 1, 2, 2
              | 1, 2, 1, 2, 1, 2, 2
              | 1, 2, 1, 2, 1, 2, 2
              | 1, 2, 1, 2, 1, 2, 2
              | 1, 2, 1, 2, 1, 2, 2
              | 1, 2, 1, 2, 1, 2, 2
              | 1, 2, 1, 2, 1, 2, 2
              | 1, 2, 1, 2, 1, 2, 2
              | 1, 2, 1, 2, 1, 2, 2
              | 1, 2, 1, 2, 1, 2, 2
              | 1, 2, 1, 2, 1, 2, 2
              | 1, 2, 1, 2, 1, 2, 2
              | 1, 2, 2, 1, 3, 1, 3
              | 1, 2, 2, 1, 3, 1, 3
              | 1, 2, 2, 1, 3, 1, 3
              | 1, 2, 2, 1, 3, 1, 3
              | 3, 1, 3, 1, 3, 1, 3
              | 3, 1, 3, 1, 3, 1, 3
              | 3, 1, 3, 1, 3, 1, 3
              | 3, 1, 3, 1, 3, 1, 3
              | 3, 1, 3, 1, 3, 1, 3
              | 1, 2, 1, 2, 1, 2, 2 |]; % separacio ideal entre sesions 

grup = [1, 2, 2, 2, 2, 2, 2, 2, 2, 3, 3, 3, 3, 3, 3, 4, 4, 4, 4, 4, 4, 5, 5, 6, 6, 6, 6, 6, 6, 6, 6, 6, 6, 6, 6, 7, 7, 7, 7, 8, 8, 8, 8, 8, 9]; % pacients amb mateix grup son identics